Code 3134
Dimension, Median
   128       16     
 Facility, Client, Transportation Cost
     1        1           4
     1        2           0
     1        3           2
     1        5           4
     1        9           2
     1       17           0
     1       33           2
     1       65           4
     2        1           2
     2        2           0
     2        4           0
     2        6           0
     2       10           4
     2       18           3
     2       34           2
     2       66           1
     3        1           0
     3        3           0
     3        4           1
     3        7           2
     3       11           3
     3       19           0
     3       35           4
     3       67           3
     4        2           4
     4        3           1
     4        4           3
     4        8           4
     4       12           0
     4       20           4
     4       36           3
     4       68           1
     5        1           0
     5        5           3
     5        6           1
     5        7           4
     5       13           0
     5       21           4
     5       37           0
     5       69           4
     6        2           4
     6        5           1
     6        6           4
     6        8           1
     6       14           3
     6       22           1
     6       38           1
     6       70           1
     7        3           0
     7        5           0
     7        7           4
     7        8           2
     7       15           1
     7       23           0
     7       39           1
     7       71           4
     8        4           1
     8        6           1
     8        7           1
     8        8           0
     8       16           2
     8       24           2
     8       40           0
     8       72           4
     9        1           0
     9        9           1
     9       10           0
     9       11           4
     9       13           0
     9       25           3
     9       41           3
     9       73           2
    10        2           1
    10        9           0
    10       10           1
    10       12           1
    10       14           1
    10       26           4
    10       42           2
    10       74           3
    11        3           2
    11        9           0
    11       11           0
    11       12           0
    11       15           0
    11       27           4
    11       43           0
    11       75           1
    12        4           3
    12       10           2
    12       11           2
    12       12           3
    12       16           4
    12       28           4
    12       44           4
    12       76           0
    13        5           2
    13        9           4
    13       13           0
    13       14           4
    13       15           0
    13       29           0
    13       45           0
    13       77           0
    14        6           1
    14       10           0
    14       13           4
    14       14           0
    14       16           2
    14       30           1
    14       46           2
    14       78           0
    15        7           4
    15       11           0
    15       13           4
    15       15           2
    15       16           3
    15       31           4
    15       47           1
    15       79           0
    16        8           4
    16       12           4
    16       14           1
    16       15           2
    16       16           4
    16       32           0
    16       48           0
    16       80           2
    17        1           2
    17       17           4
    17       18           0
    17       19           2
    17       21           3
    17       25           0
    17       49           4
    17       81           3
    18        2           1
    18       17           3
    18       18           3
    18       20           2
    18       22           4
    18       26           2
    18       50           3
    18       82           1
    19        3           3
    19       17           2
    19       19           3
    19       20           0
    19       23           0
    19       27           3
    19       51           0
    19       83           4
    20        4           4
    20       18           0
    20       19           1
    20       20           2
    20       24           2
    20       28           3
    20       52           2
    20       84           2
    21        5           0
    21       17           0
    21       21           2
    21       22           3
    21       23           2
    21       29           4
    21       53           2
    21       85           4
    22        6           4
    22       18           4
    22       21           3
    22       22           0
    22       24           3
    22       30           1
    22       54           1
    22       86           3
    23        7           0
    23       19           2
    23       21           1
    23       23           1
    23       24           1
    23       31           2
    23       55           3
    23       87           3
    24        8           4
    24       20           1
    24       22           1
    24       23           4
    24       24           4
    24       32           4
    24       56           0
    24       88           2
    25        9           0
    25       17           2
    25       25           0
    25       26           2
    25       27           3
    25       29           4
    25       57           2
    25       89           3
    26       10           1
    26       18           1
    26       25           0
    26       26           1
    26       28           3
    26       30           2
    26       58           0
    26       90           2
    27       11           3
    27       19           2
    27       25           3
    27       27           4
    27       28           3
    27       31           1
    27       59           2
    27       91           4
    28       12           4
    28       20           3
    28       26           1
    28       27           3
    28       28           4
    28       32           2
    28       60           4
    28       92           3
    29       13           0
    29       21           0
    29       25           3
    29       29           1
    29       30           0
    29       31           4
    29       61           1
    29       93           3
    30       14           0
    30       22           3
    30       26           0
    30       29           2
    30       30           3
    30       32           1
    30       62           0
    30       94           1
    31       15           3
    31       23           0
    31       27           3
    31       29           1
    31       31           4
    31       32           0
    31       63           4
    31       95           3
    32       16           1
    32       24           0
    32       28           3
    32       30           2
    32       31           3
    32       32           3
    32       64           4
    32       96           1
    33        1           1
    33       33           3
    33       34           3
    33       35           1
    33       37           2
    33       41           3
    33       49           0
    33       97           0
    34        2           3
    34       33           2
    34       34           3
    34       36           2
    34       38           0
    34       42           2
    34       50           2
    34       98           1
    35        3           0
    35       33           0
    35       35           3
    35       36           0
    35       39           1
    35       43           3
    35       51           4
    35       99           0
    36        4           4
    36       34           1
    36       35           2
    36       36           2
    36       40           2
    36       44           0
    36       52           1
    36      100           0
    37        5           4
    37       33           4
    37       37           4
    37       38           4
    37       39           0
    37       45           1
    37       53           4
    37      101           4
    38        6           0
    38       34           1
    38       37           1
    38       38           4
    38       40           0
    38       46           0
    38       54           2
    38      102           4
    39        7           3
    39       35           3
    39       37           4
    39       39           3
    39       40           1
    39       47           1
    39       55           4
    39      103           2
    40        8           3
    40       36           2
    40       38           3
    40       39           4
    40       40           2
    40       48           4
    40       56           2
    40      104           2
    41        9           0
    41       33           3
    41       41           0
    41       42           4
    41       43           4
    41       45           0
    41       57           0
    41      105           0
    42       10           3
    42       34           3
    42       41           1
    42       42           0
    42       44           0
    42       46           0
    42       58           2
    42      106           3
    43       11           4
    43       35           1
    43       41           3
    43       43           3
    43       44           3
    43       47           0
    43       59           3
    43      107           2
    44       12           4
    44       36           3
    44       42           3
    44       43           4
    44       44           3
    44       48           4
    44       60           4
    44      108           2
    45       13           0
    45       37           2
    45       41           4
    45       45           0
    45       46           4
    45       47           1
    45       61           1
    45      109           4
    46       14           2
    46       38           4
    46       42           2
    46       45           4
    46       46           4
    46       48           2
    46       62           4
    46      110           2
    47       15           2
    47       39           3
    47       43           4
    47       45           1
    47       47           4
    47       48           4
    47       63           4
    47      111           4
    48       16           1
    48       40           1
    48       44           0
    48       46           4
    48       47           2
    48       48           1
    48       64           2
    48      112           3
    49       17           4
    49       33           3
    49       49           3
    49       50           0
    49       51           0
    49       53           1
    49       57           4
    49      113           2
    50       18           4
    50       34           4
    50       49           4
    50       50           3
    50       52           2
    50       54           1
    50       58           4
    50      114           2
    51       19           1
    51       35           2
    51       49           2
    51       51           0
    51       52           2
    51       55           4
    51       59           1
    51      115           4
    52       20           3
    52       36           3
    52       50           2
    52       51           3
    52       52           1
    52       56           0
    52       60           1
    52      116           0
    53       21           3
    53       37           1
    53       49           2
    53       53           2
    53       54           0
    53       55           1
    53       61           2
    53      117           4
    54       22           4
    54       38           3
    54       50           1
    54       53           4
    54       54           4
    54       56           2
    54       62           2
    54      118           4
    55       23           1
    55       39           1
    55       51           4
    55       53           2
    55       55           0
    55       56           0
    55       63           2
    55      119           1
    56       24           4
    56       40           1
    56       52           3
    56       54           3
    56       55           0
    56       56           1
    56       64           1
    56      120           2
    57       25           0
    57       41           0
    57       49           4
    57       57           4
    57       58           2
    57       59           4
    57       61           3
    57      121           4
    58       26           2
    58       42           4
    58       50           3
    58       57           0
    58       58           3
    58       60           1
    58       62           3
    58      122           4
    59       27           1
    59       43           1
    59       51           4
    59       57           2
    59       59           4
    59       60           3
    59       63           4
    59      123           0
    60       28           3
    60       44           2
    60       52           4
    60       58           0
    60       59           2
    60       60           4
    60       64           4
    60      124           3
    61       29           3
    61       45           4
    61       53           1
    61       57           0
    61       61           4
    61       62           1
    61       63           0
    61      125           1
    62       30           2
    62       46           3
    62       54           4
    62       58           3
    62       61           4
    62       62           2
    62       64           2
    62      126           3
    63       31           2
    63       47           2
    63       55           2
    63       59           3
    63       61           0
    63       63           4
    63       64           0
    63      127           0
    64       32           3
    64       48           1
    64       56           4
    64       60           2
    64       62           4
    64       63           0
    64       64           0
    64      128           3
    65        1           3
    65       65           4
    65       66           3
    65       67           1
    65       69           2
    65       73           4
    65       81           4
    65       97           3
    66        2           1
    66       65           1
    66       66           0
    66       68           3
    66       70           4
    66       74           1
    66       82           3
    66       98           0
    67        3           2
    67       65           1
    67       67           1
    67       68           2
    67       71           3
    67       75           4
    67       83           3
    67       99           3
    68        4           4
    68       66           1
    68       67           1
    68       68           2
    68       72           2
    68       76           3
    68       84           0
    68      100           0
    69        5           1
    69       65           1
    69       69           1
    69       70           1
    69       71           2
    69       77           0
    69       85           2
    69      101           4
    70        6           2
    70       66           3
    70       69           4
    70       70           1
    70       72           0
    70       78           4
    70       86           1
    70      102           0
    71        7           1
    71       67           4
    71       69           2
    71       71           3
    71       72           1
    71       79           2
    71       87           1
    71      103           2
    72        8           3
    72       68           0
    72       70           3
    72       71           4
    72       72           4
    72       80           1
    72       88           3
    72      104           1
    73        9           1
    73       65           4
    73       73           0
    73       74           2
    73       75           0
    73       77           1
    73       89           1
    73      105           4
    74       10           4
    74       66           1
    74       73           0
    74       74           0
    74       76           0
    74       78           1
    74       90           3
    74      106           1
    75       11           3
    75       67           4
    75       73           3
    75       75           0
    75       76           4
    75       79           1
    75       91           2
    75      107           4
    76       12           3
    76       68           4
    76       74           2
    76       75           3
    76       76           3
    76       80           2
    76       92           4
    76      108           4
    77       13           2
    77       69           2
    77       73           3
    77       77           1
    77       78           0
    77       79           0
    77       93           0
    77      109           2
    78       14           2
    78       70           3
    78       74           0
    78       77           4
    78       78           4
    78       80           3
    78       94           2
    78      110           1
    79       15           2
    79       71           4
    79       75           4
    79       77           3
    79       79           2
    79       80           1
    79       95           2
    79      111           0
    80       16           2
    80       72           4
    80       76           2
    80       78           4
    80       79           1
    80       80           3
    80       96           2
    80      112           0
    81       17           2
    81       65           2
    81       81           1
    81       82           1
    81       83           1
    81       85           4
    81       89           0
    81      113           3
    82       18           4
    82       66           0
    82       81           1
    82       82           3
    82       84           0
    82       86           0
    82       90           1
    82      114           3
    83       19           1
    83       67           1
    83       81           4
    83       83           3
    83       84           4
    83       87           2
    83       91           4
    83      115           1
    84       20           2
    84       68           4
    84       82           3
    84       83           3
    84       84           1
    84       88           4
    84       92           4
    84      116           0
    85       21           0
    85       69           0
    85       81           4
    85       85           0
    85       86           2
    85       87           4
    85       93           1
    85      117           3
    86       22           0
    86       70           1
    86       82           3
    86       85           0
    86       86           3
    86       88           4
    86       94           3
    86      118           4
    87       23           3
    87       71           4
    87       83           4
    87       85           0
    87       87           4
    87       88           2
    87       95           4
    87      119           3
    88       24           1
    88       72           2
    88       84           1
    88       86           2
    88       87           1
    88       88           2
    88       96           1
    88      120           0
    89       25           2
    89       73           0
    89       81           0
    89       89           3
    89       90           1
    89       91           4
    89       93           1
    89      121           2
    90       26           2
    90       74           0
    90       82           1
    90       89           3
    90       90           1
    90       92           4
    90       94           1
    90      122           0
    91       27           1
    91       75           4
    91       83           4
    91       89           1
    91       91           3
    91       92           1
    91       95           1
    91      123           4
    92       28           0
    92       76           4
    92       84           2
    92       90           3
    92       91           4
    92       92           2
    92       96           3
    92      124           4
    93       29           4
    93       77           2
    93       85           1
    93       89           3
    93       93           4
    93       94           0
    93       95           1
    93      125           4
    94       30           3
    94       78           0
    94       86           4
    94       90           3
    94       93           1
    94       94           3
    94       96           0
    94      126           3
    95       31           3
    95       79           3
    95       87           4
    95       91           1
    95       93           1
    95       95           1
    95       96           2
    95      127           1
    96       32           1
    96       80           1
    96       88           4
    96       92           4
    96       94           4
    96       95           1
    96       96           3
    96      128           3
    97       33           1
    97       65           3
    97       97           1
    97       98           2
    97       99           4
    97      101           1
    97      105           3
    97      113           3
    98       34           1
    98       66           2
    98       97           1
    98       98           2
    98      100           1
    98      102           1
    98      106           0
    98      114           2
    99       35           1
    99       67           4
    99       97           4
    99       99           0
    99      100           3
    99      103           3
    99      107           3
    99      115           0
   100       36           1
   100       68           2
   100       98           4
   100       99           0
   100      100           0
   100      104           3
   100      108           3
   100      116           4
   101       37           3
   101       69           3
   101       97           3
   101      101           0
   101      102           1
   101      103           4
   101      109           0
   101      117           4
   102       38           0
   102       70           0
   102       98           2
   102      101           2
   102      102           1
   102      104           3
   102      110           4
   102      118           2
   103       39           3
   103       71           1
   103       99           4
   103      101           4
   103      103           4
   103      104           3
   103      111           0
   103      119           1
   104       40           0
   104       72           1
   104      100           2
   104      102           4
   104      103           4
   104      104           2
   104      112           0
   104      120           1
   105       41           4
   105       73           4
   105       97           3
   105      105           0
   105      106           4
   105      107           2
   105      109           4
   105      121           2
   106       42           0
   106       74           4
   106       98           1
   106      105           0
   106      106           2
   106      108           2
   106      110           4
   106      122           4
   107       43           0
   107       75           4
   107       99           4
   107      105           2
   107      107           1
   107      108           3
   107      111           0
   107      123           0
   108       44           1
   108       76           0
   108      100           2
   108      106           2
   108      107           1
   108      108           1
   108      112           3
   108      124           2
   109       45           4
   109       77           4
   109      101           1
   109      105           0
   109      109           0
   109      110           2
   109      111           0
   109      125           2
   110       46           1
   110       78           1
   110      102           1
   110      106           1
   110      109           2
   110      110           4
   110      112           4
   110      126           4
   111       47           0
   111       79           2
   111      103           3
   111      107           1
   111      109           3
   111      111           0
   111      112           0
   111      127           1
   112       48           3
   112       80           4
   112      104           4
   112      108           0
   112      110           1
   112      111           4
   112      112           3
   112      128           0
   113       49           2
   113       81           1
   113       97           4
   113      113           2
   113      114           1
   113      115           3
   113      117           0
   113      121           3
   114       50           3
   114       82           4
   114       98           3
   114      113           3
   114      114           0
   114      116           4
   114      118           2
   114      122           3
   115       51           4
   115       83           3
   115       99           4
   115      113           0
   115      115           3
   115      116           4
   115      119           3
   115      123           3
   116       52           3
   116       84           4
   116      100           0
   116      114           0
   116      115           2
   116      116           0
   116      120           2
   116      124           0
   117       53           1
   117       85           1
   117      101           0
   117      113           0
   117      117           0
   117      118           2
   117      119           4
   117      125           0
   118       54           3
   118       86           2
   118      102           1
   118      114           0
   118      117           4
   118      118           0
   118      120           3
   118      126           2
   119       55           3
   119       87           1
   119      103           3
   119      115           3
   119      117           2
   119      119           4
   119      120           2
   119      127           4
   120       56           1
   120       88           2
   120      104           3
   120      116           4
   120      118           4
   120      119           3
   120      120           1
   120      128           4
   121       57           2
   121       89           1
   121      105           2
   121      113           0
   121      121           1
   121      122           3
   121      123           1
   121      125           0
   122       58           2
   122       90           4
   122      106           3
   122      114           0
   122      121           1
   122      122           3
   122      124           4
   122      126           3
   123       59           4
   123       91           2
   123      107           2
   123      115           0
   123      121           0
   123      123           0
   123      124           1
   123      127           4
   124       60           1
   124       92           2
   124      108           4
   124      116           4
   124      122           2
   124      123           2
   124      124           1
   124      128           3
   125       61           1
   125       93           4
   125      109           3
   125      117           1
   125      121           1
   125      125           3
   125      126           2
   125      127           0
   126       62           3
   126       94           4
   126      110           4
   126      118           3
   126      122           1
   126      125           3
   126      126           2
   126      128           3
   127       63           2
   127       95           0
   127      111           1
   127      119           2
   127      123           4
   127      125           0
   127      127           3
   127      128           2
   128       64           4
   128       96           4
   128      112           2
   128      120           1
   128      124           4
   128      126           1
   128      127           2
   128      128           1
